c A SAT instance generated from a 3-CNF formula that had 27 clauses and 9 variables
p cnf 9 27
4 -7 8 0
3 -5 4 0
6 -9 -5 0
-4 2 3 0
2 -4 -7 0
-3 -1 5 0
9 -5 -8 0
-8 1 -5 0
9 4 1 0
-6 -3 2 0
-9 -3 6 0
5 7 -9 0
2 9 7 0
3 9 -5 0
2 -1 -8 0
5 4 9 0
-1 -5 -8 0
-1 4 6 0
-9 7 -4 0
-5 7 -1 0
-9 3 -1 0
-7 4 9 0
6 -9 3 0
3 4 -1 0
-5 9 8 0
-3 2 4 0
-6 -3 8 0
